20191106 55700.00 47600.00
20171231 37300.00 30600.00
20170710 37300.35 30293.95
20170619 37288.35 30840.76
20170112 37288.35 30840.76
20160708 37260.37 30419.89
20151231 36613.87 29291.79
20151009 36613.87 29334.31
